[2026-03-23T13:37:47.457Z] Pipeline "set_exp_2_exp_2_n026_c002_g005" → 2026_03_23_13_37_47_set_exp_2_exp_2_n026_c002_g005_max.sol
Set parameter WLSAccessID
Set parameter WLSSecret
Set parameter LicenseID to value 2792458
Set parameter LogFile to value "gurobi.log"
Using license file /root/gurobi.lic
Academic license 2792458 - for non-commercial use only - registered to an___@studenti.unipg.it

Gurobi Optimizer version 13.0.1 build v13.0.1rc0 (linux64 - "Ubuntu 24.04.4 LTS")
Copyright (c) 2026, Gurobi Optimization, LLC

Warning: Duplicate section found (read 'binary') - Is a variable name equal to an LP file format keyword?
Warning: Duplicate section found (read 'binary') - Is a variable name equal to an LP file format keyword?
Warning: Duplicate section found (read 'binary') - Is a variable name equal to an LP file format keyword?
Warning: Duplicate section found (read 'binary') - Is a variable name equal to an LP file format keyword?
Warning: Duplicate section found (read 'binary') - Is a variable name equal to an LP file format keyword?
Warning: Duplicate section found (read 'binary') - Is a variable name equal to an LP file format keyword?
Warning: Duplicate section found (read 'binary') - Is a variable name equal to an LP file format keyword?
Warning: Duplicate section found (read 'binary') - Is a variable name equal to an LP file format keyword?
Warning: Duplicate section found (read 'binary') - Is a variable name equal to an LP file format keyword?
Warning: Duplicate section found (read 'binary') - Is a variable name equal to an LP file format keyword?
Warning: Further warnings of this type will be omitted.
Read LP format model from file /root/bgw/data/uploads/2026_03_23_13_37_47_set_exp_2_exp_2_n026_c002_g005_max.lp
Reading time = 0.01 seconds
: 6216 rows, 538 columns, 18271 nonzeros

Using Gurobi shared library /opt/gurobi1301/linux64/lib/libgurobi.so.13.0.1

CPU model: AMD EPYC-Genoa Processor, instruction set [SSE2|AVX|AVX2|AVX512]
Thread count: 16 physical cores, 16 logical processors, using up to 16 threads

Academic license 2792458 - for non-commercial use only - registered to an___@studenti.unipg.it
Optimize a model with 6216 rows, 538 columns and 18271 nonzeros (Max)
Model fingerprint: 0xc8d8bb9c
Model has 6 linear objective coefficients
Variable types: 32 continuous, 506 integer (506 binary)
Coefficient statistics:
  Matrix range     [1e+00, 3e+01]
  Objective range  [1e+00, 1e+00]
  Bounds range     [1e+00, 1e+00]
  RHS range        [1e+00, 3e+01]

Found heuristic solution: objective 6.0000000
Presolve removed 991 rows and 197 columns
Presolve time: 0.03s
Presolved: 5225 rows, 341 columns, 15836 nonzeros
Variable types: 0 continuous, 341 integer (334 binary)

Root relaxation: objective 2.700000e+01, 109 iterations, 0.01 seconds (0.01 work units)

    Nodes    |    Current Node    |     Objective Bounds      |     Work
 Expl Unexpl |  Obj  Depth IntInf | Incumbent    BestBd   Gap | It/Node Time

     0     0   27.00000    0   10    6.00000   27.00000   350%     -    0s
H    0     0                      17.0000000   27.00000  58.8%     -    0s
     0     0   27.00000    0    9   17.00000   27.00000  58.8%     -    0s
     0     0   27.00000    0   16   17.00000   27.00000  58.8%     -    0s
     0     0   27.00000    0   10   17.00000   27.00000  58.8%     -    0s
     0     0   24.00000    0   15   17.00000   24.00000  41.2%     -    0s
     0     0   24.00000    0   15   17.00000   24.00000  41.2%     -    0s
     0     0   24.00000    0   15   17.00000   24.00000  41.2%     -    0s
     0     0   24.00000    0   14   17.00000   24.00000  41.2%     -    0s
     0     0   24.00000    0   15   17.00000   24.00000  41.2%     -    0s
     0     0   24.00000    0   16   17.00000   24.00000  41.2%     -    0s
     0     0   24.00000    0   10   17.00000   24.00000  41.2%     -    0s
     0     0   23.75000    0    8   17.00000   23.75000  39.7%     -    0s
     0     0   23.75000    0   12   17.00000   23.75000  39.7%     -    0s
     0     0   23.75000    0   10   17.00000   23.75000  39.7%     -    0s
     0     0   23.75000    0   10   17.00000   23.75000  39.7%     -    0s
     0     0   23.75000    0   10   17.00000   23.75000  39.7%     -    0s
     0     2   23.75000    0   10   17.00000   23.75000  39.7%     -    0s

Cutting planes:
  Gomory: 4
  Cover: 11
  MIR: 3
  StrongCG: 1
  Inf proof: 12
  Zero half: 1
  Mod-K: 3

Explored 426 nodes (26794 simplex iterations) in 0.55 seconds (0.74 work units)
Thread count was 16 (of 16 available processors)

Solution count 2: 17 6 

Optimal solution found (tolerance 1.00e-04)
Best objective 1.700000000000e+01, best bound 1.700000000000e+01, gap 0.0000%

Wrote result file '/root/bgw/data/results/2026_03_23_13_37_47_set_exp_2_exp_2_n026_c002_g005_max.sol'

